750
100 100
1 80 567
2 80 619
3 80 411
4 80 178
5 80 558
6 80 435
7 80 967
8 80 343
9 80 655
10 80 63
11 80 97
12 80 368
13 80 776
14 80 503
15 80 166
16 79 396
17 79 135
18 79 988
19 79 435
20 79 805
21 79 703
22 79 531
23 79 567
24 79 479
25 79 401
26 79 558
27 79 86
28 79 870
29 79 427
30 79 683
31 79 18
32 79 123
33 79 725
34 79 666
35 79 903
36 78 741
37 78 524
38 78 278
39 78 486
40 78 205
41 78 731
42 78 439
43 78 341
44 78 576
45 78 135
46 78 414
47 77 518
48 77 549
49 77 711
50 77 131
51 77 876
52 77 229
53 77 365
54 77 468
55 77 53
56 77 894
57 77 991
58 77 641
59 77 921
60 77 413
61 77 992
62 77 54
63 77 259
64 77 86
65 77 830
66 77 971
67 76 286
68 76 347
69 76 780
70 76 641
71 76 234
72 76 156
73 76 673
74 75 48
75 75 559
76 75 620
77 75 841
78 75 970
79 75 155
80 75 773
81 75 301
82 75 594
83 75 495
84 75 691
85 75 694
86 74 312
87 74 275
88 74 326
89 74 82
90 74 296
91 74 952
92 74 543
93 74 863
94 74 12
95 74 17
96 74 228
97 74 986
98 74 769
99 74 675
100 74 637
101 74 831
102 74 851
103 74 109
104 73 962
105 73 13
106 73 443
107 73 52
108 73 917
109 73 513
110 73 912
111 73 779
112 73 406
113 73 865
114 73 71
115 72 28
116 72 286
117 72 494
118 72 812
119 72 708
120 72 922
121 72 455
122 72 969
123 72 967
124 72 720
125 72 725
126 72 207
127 71 836
128 71 14
129 71 283
130 71 855
131 71 982
132 71 169
133 71 464
134 70 118
135 70 344
136 70 615
137 70 624
138 70 363
139 70 507
140 70 514
141 70 231
142 70 653
143 70 410
144 70 377
145 70 483
146 70 857
147 69 172
148 69 954
149 69 649
150 69 706
151 69 829
152 69 354
153 69 893
154 69 810
155 69 180
156 69 426
157 68 273
158 68 649
159 68 263
160 68 683
161 68 637
162 68 299
163 68 841
164 68 130
165 68 854
166 68 798
167 68 926
168 67 834
169 67 479
170 67 92
171 67 581
172 67 587
173 67 344
174 67 599
175 67 950
176 67 200
177 67 955
178 67 753
179 67 209
180 67 477
181 67 864
182 67 296
183 66 906
184 66 569
185 66 805
186 66 755
187 66 940
188 66 978
189 66 973
190 66 702
191 65 368
192 65 959
193 65 927
194 65 495
195 65 522
196 65 40
197 65 955
198 65 475
199 64 943
200 64 50
201 64 484
202 64 55
203 64 643
204 64 171
205 64 513
206 64 392
207 64 329
208 64 70
209 64 337
210 63 109
211 63 582
212 63 338
213 63 163
214 63 201
215 63 38
216 63 21
217 63 256
218 62 994
219 62 867
220 62 116
221 62 163
222 62 722
223 62 895
224 62 233
225 62 400
226 62 588
227 62 817
228 62 855
229 61 395
230 61 487
231 61 401
232 61 114
233 61 107
234 61 21
235 61 868
236 61 741
237 61 689
238 60 940
239 60 276
240 60 66
241 60 684
242 60 4
243 60 295
244 60 663
245 60 773
246 60 737
247 60 926
248 60 224
249 60 696
250 59 314
251 59 421
252 59 23
253 59 894
254 59 156
255 59 289
256 59 145
257 59 561
258 59 590
259 59 279
260 59 37
261 59 123
262 59 640
263 58 187
264 58 511
265 58 815
266 58 728
267 58 487
268 58 916
269 58 771
270 58 766
271 58 794
272 58 17
273 58 153
274 58 368
275 58 754
276 57 366
277 57 780
278 57 645
279 57 391
280 57 695
281 57 165
282 57 156
283 57 923
284 57 155
285 57 717
286 57 452
287 57 489
288 56 238
289 56 996
290 56 681
291 56 745
292 56 650
293 56 606
294 56 525
295 56 381
296 56 719
297 56 525
298 56 207
299 56 972
300 56 901
301 56 936
302 55 701
303 55 727
304 55 273
305 55 176
306 55 717
307 55 413
308 55 107
309 55 693
310 55 449
311 54 186
312 54 44
313 54 452
314 54 721
315 54 540
316 54 56
317 54 199
318 54 242
319 54 586
320 54 431
321 54 888
322 54 550
323 53 331
324 53 260
325 53 419
326 53 781
327 53 24
328 53 232
329 53 667
330 53 999
331 53 798
332 53 578
333 53 23
334 53 812
335 53 114
336 53 219
337 53 257
338 53 206
339 53 29
340 53 129
341 53 218
342 52 970
343 52 420
344 52 561
345 52 712
346 52 296
347 52 304
348 52 725
349 52 22
350 52 216
351 52 67
352 52 1000
353 52 522
354 51 185
355 51 408
356 51 310
357 51 778
358 51 869
359 51 143
360 51 264
361 51 305
362 50 394
363 50 895
364 50 308
365 50 940
366 50 975
367 50 448
368 50 225
369 50 847
370 50 205
371 50 349
372 49 328
373 49 183
374 49 418
375 49 5
376 49 423
377 49 955
378 49 660
379 49 902
380 49 200
381 49 28
382 49 964
383 49 869
384 49 366
385 48 373
386 48 723
387 48 754
388 48 271
389 48 574
390 48 431
391 48 261
392 48 705
393 48 527
394 48 97
395 48 245
396 48 217
397 48 242
398 47 309
399 47 72
400 47 789
401 47 288
402 47 255
403 47 31
404 47 215
405 47 352
406 47 885
407 47 713
408 47 731
409 47 886
410 46 762
411 46 135
412 46 54
413 46 939
414 46 371
415 46 856
416 46 56
417 46 418
418 46 971
419 46 821
420 46 695
421 45 632
422 45 436
423 45 485
424 45 552
425 45 609
426 45 919
427 45 337
428 45 589
429 45 499
430 45 458
431 45 208
432 45 732
433 44 51
434 44 541
435 44 117
436 44 188
437 44 269
438 44 464
439 44 423
440 44 493
441 44 217
442 44 152
443 43 883
444 43 568
445 43 543
446 43 26
447 43 660
448 43 172
449 43 481
450 43 309
451 43 815
452 43 580
453 43 107
454 43 535
455 43 470
456 43 736
457 43 637
458 42 618
459 42 825
460 42 308
461 42 478
462 42 909
463 42 787
464 42 912
465 42 781
466 42 894
467 42 541
468 42 184
469 42 932
470 41 440
471 41 205
472 41 392
473 41 149
474 41 661
475 41 633
476 41 482
477 41 853
478 41 942
479 41 710
480 41 942
481 41 963
482 41 423
483 40 496
484 40 596
485 40 509
486 40 21
487 40 668
488 40 619
489 40 861
490 40 624
491 40 387
492 40 843
493 40 853
494 40 461
495 40 250
496 40 358
497 39 819
498 39 675
499 39 367
500 39 92
501 39 682
502 39 324
503 39 940
504 39 284
505 39 711
506 39 646
507 39 693
508 39 440
509 39 381
510 39 135
511 39 52
512 38 369
513 38 479
514 38 831
515 38 482
516 38 392
517 38 293
518 38 468
519 38 900
520 38 676
521 38 705
522 37 802
523 37 201
524 37 500
525 37 55
526 37 315
527 37 931
528 37 538
529 37 490
530 37 444
531 37 771
532 37 547
533 36 442
534 36 749
535 36 609
536 36 932
537 36 928
538 36 276
539 36 476
540 36 668
541 36 808
542 36 178
543 36 252
544 36 154
545 35 133
546 35 901
547 35 419
548 35 561
549 35 165
550 35 155
551 35 293
552 35 566
553 35 736
554 35 975
555 35 206
556 35 810
557 35 105
558 35 428
559 35 98
560 35 693
561 35 308
562 34 24
563 34 977
564 34 528
565 34 39
566 34 439
567 34 178
568 34 685
569 34 989
570 34 397
571 34 479
572 33 302
573 33 832
574 33 261
575 33 998
576 33 63
577 33 529
578 33 453
579 33 931
580 33 540
581 33 260
582 33 666
583 32 209
584 32 932
585 32 373
586 32 546
587 32 465
588 32 733
589 32 805
590 32 517
591 32 717
592 32 618
593 31 778
594 31 255
595 31 728
596 31 850
597 31 954
598 31 87
599 31 325
600 31 859
601 31 632
602 31 98
603 31 494
604 31 953
605 31 522
606 30 137
607 30 35
608 30 937
609 30 758
610 30 120
611 30 829
612 30 456
613 30 766
614 30 702
615 30 656
616 30 900
617 30 554
618 29 208
619 29 245
620 29 41
621 29 450
622 29 98
623 29 555
624 29 868
625 29 461
626 29 142
627 29 402
628 29 573
629 29 6
630 29 461
631 29 442
632 29 350
633 29 85
634 28 574
635 28 816
636 28 407
637 28 514
638 28 831
639 28 108
640 28 338
641 28 338
642 28 885
643 28 221
644 28 702
645 28 149
646 27 372
647 27 924
648 27 519
649 27 743
650 27 449
651 27 110
652 27 862
653 27 44
654 27 752
655 27 749
656 27 60
657 26 331
658 26 372
659 26 113
660 26 369
661 26 329
662 26 310
663 26 320
664 26 156
665 26 72
666 26 945
667 26 935
668 25 958
669 25 513
670 25 722
671 25 606
672 25 249
673 25 542
674 25 832
675 25 255
676 25 703
677 25 903
678 25 180
679 25 18
680 25 479
681 25 47
682 25 962
683 25 247
684 24 590
685 24 510
686 24 172
687 24 442
688 24 349
689 24 45
690 24 43
691 24 614
692 24 811
693 24 578
694 24 490
695 23 35
696 23 716
697 23 330
698 23 269
699 23 476
700 23 565
701 23 14
702 23 185
703 23 899
704 23 884
705 23 338
706 23 616
707 23 860
708 23 952
709 23 709
710 23 703
711 23 302
712 23 238
713 23 162
714 23 795
715 23 850
716 22 381
717 22 172
718 22 392
719 22 212
720 22 979
721 22 782
722 22 419
723 22 258
724 22 471
725 22 662
726 22 717
727 22 596
728 21 333
729 21 635
730 21 529
731 21 333
732 21 39
733 21 747
734 21 665
735 21 987
736 21 723
737 21 859
738 21 27
739 20 371
740 20 329
741 20 336
742 20 644
743 20 88
744 20 701
745 20 818
746 20 354
747 20 901
748 20 805
749 20 330
750 20 71
